32	0

0	1	2
5	1	3
5	1	4
8	1	5
8	1	6
2	1	7
8	1	8
2	1	9
2	2	10	12
1	1	11
3	1	13
7	1	13
6	1	14
4	1	15
8	1	16
1	1	17
1	2	18	19
7	1	20
9	1	20
4	1	21
5	1	22
2	1	23
9	1	24
3	1	25
9	1	26
5	1	27
10	1	28
1	1	29
1	1	30
9	1	31
3	1	32
0	0
